Version identifier: 20.1.0.0 | 2020-11-10 | 9bedb6d68
Tried aggregator 2 times.
MIP Presolve eliminated 900 rows and 533 columns.
MIP Presolve modified 1724 coefficients.
Aggregator did 104 substitutions.
Reduced MIP has 702 rows, 570 columns, and 2231 nonzeros.
Reduced MIP has 146 binaries, 424 generals, 0 SOSs, and 0 indicators.
Presolve time = 0.02 sec. (3.74 ticks)
Found incumbent of value 33.000000 after 0.04 sec. (6.41 ticks)
Probing fixed 20 vars, tightened 188 bounds.
Probing time = 0.00 sec. (0.54 ticks)
Tried aggregator 1 time.
Detecting symmetries...
MIP Presolve eliminated 300 rows and 20 columns.
MIP Presolve modified 35 coefficients.
Reduced MIP has 402 rows, 550 columns, and 1311 nonzeros.
Reduced MIP has 209 binaries, 341 generals, 0 SOSs, and 0 indicators.
Presolve time = 0.00 sec. (1.46 ticks)
Probing time = 0.00 sec. (0.11 ticks)
Clique table members: 1.
MIP emphasis: balance optimality and feasibility.
MIP search method: dynamic search.
Parallel mode: deterministic, using up to 24 threads.
Root relaxation solution time = 0.10 sec. (0.97 ticks)

        Nodes                                         Cuts/
   Node  Left     Objective  IInf  Best Integer    Best Bound    ItCnt     Gap

*     0+    0                           33.0000        0.0000           100.00%
      0     0        0.0000    26       33.0000        0.0000      125  100.00%
      0     0        1.3721   113       33.0000      Cuts: 65      272   95.84%
*     0+    0                           11.0000        1.3721            87.53%
      0     0        2.1176   179       11.0000      Cuts: 57      429   80.75%
      0     0        2.1980   184       11.0000      Cuts: 57      485   80.02%
      0     0        2.2083   193       11.0000      Cuts: 60      516   79.92%
      0     0        2.3735   211       11.0000      Cuts: 42      583   78.42%
      0     0        2.6000   211       11.0000      Cuts: 64      627   76.36%
      0     0        2.6000   198       11.0000      Cuts: 50      677   76.36%
      0     0        2.6709   199       11.0000      Cuts: 40      707   75.72%
      0     0        2.6949   206       11.0000      Cuts: 34      735   75.50%
      0     0        2.7372   237       11.0000      Cuts: 55      782   75.12%
      0     0        2.7427   226       11.0000      Cuts: 44      853   75.07%
      0     0        2.7445   214       11.0000      Cuts: 63      889   75.05%
      0     0        2.7445   223       11.0000      Cuts: 53      940   75.05%
      0     0        2.7490   175       11.0000      Cuts: 18      986   75.01%
      0     0        2.7490   201       11.0000      Cuts: 93     1035   75.01%
*     0+    0                            8.0000        2.7490            65.64%
      0     0        cutoff              8.0000        8.0000     1035    0.00%
Elapsed time = 0.37 sec. (100.40 ticks, tree = 0.01 MB, solutions = 3)

Implied bound cuts applied:  12
Flow cuts applied:  1
Mixed integer rounding cuts applied:  7
Zero-half cuts applied:  61
Gomory fractional cuts applied:  5

Root node processing (before b&c):
  Real time             =    0.37 sec. (100.47 ticks)
Parallel b&c, 24 threads:
  Real time             =    0.00 sec. (0.00 ticks)
  Sync time (average)   =    0.00 sec.
  Wait time (average)   =    0.00 sec.
                          ------------
Total (root+branch&cut) =    0.37 sec. (100.47 ticks)

Solution status = Optimal
Solution LB = 8
Solution UB = 8
Runtime = 0.383443 seconds
	Command being timed: "/home/min/git_repos/CS598MEBProject/CNT-ILP/build/cnt -s 2 ./output/k6_n20/simC_c1_k6_n20_u3_s3_del04.input-left.cnp"
	User time (seconds): 4.18
	System time (seconds): 0.05
	Percent of CPU this job got: 845%
	Elapsed (wall clock) time (h:mm:ss or m:ss): 0:00.50
	Average shared text size (kbytes): 0
	Average unshared data size (kbytes): 0
	Average stack size (kbytes): 0
	Average total size (kbytes): 0
	Maximum resident set size (kbytes): 52148
	Average resident set size (kbytes): 0
	Major (requiring I/O) page faults: 124
	Minor (reclaiming a frame) page faults: 10119
	Voluntary context switches: 1892
	Involuntary context switches: 555
	Swaps: 0
	File system inputs: 29472
	File system outputs: 16
	Socket messages sent: 0
	Socket messages received: 0
	Signals delivered: 0
	Page size (bytes): 4096
	Exit status: 0
